30
0 1 0.54 0.2
0 2 0.6 0.16
0 3 0.62 0.24
0 4 0.32 0.19
0 5 0.34 0.28
0 6 0.53 0.22
0 7 0.5 0.24
0 8 0.7 0.24
0 9 0.25 0.24
0 10 0.54 0.26
0 11 0.45 0.18
0 12 0.75 0.4
0 13 0.66 0.22
0 14 0.26 0.2
0 15 0.6 0.28
0 16 0.57 0.22
0 17 0.36 0.06
0 18 0.18 0.08
0 19 0.66 0.28
0 20 0.52 0.34
0 21 0.87 0.3
0 22 0.6 0.28
0 23 0.45 0.3
0 24 0.72 0.29
0 25 0.51 0.36
0 26 0.32 0.26
0 27 0.58 0.14
0 28 0.7 0.14
0 29 0.55 0.29
1 2 0.36 0.08
1 3 0.48 0.16
1 4 0.5 0.11
1 5 0.5 0.22
1 6 0.62 0.18
1 7 0.86 0.18
1 8 0.69 0.2
1 9 0.7 0.26
1 10 0.81 0.2
1 11 0.51 0.2
1 12 0.61 0.3
1 13 0.31 0.24
1 14 0.6 0.15
1 15 0.48 0.26
1 16 0.36 0.21
1 17 0.38 0.14
1 18 0.58 0.12
1 19 0.64 0.12
1 20 0.58 0.29
1 21 0.64 0.23
1 22 0.18 0.08
1 23 0.54 0.16
1 24 0.58 0.09
1 25 0.66 0.23
1 26 0.72 0.2
1 27 0.16 0.11
1 28 0.2 0.06
1 29 0.47 0.09
2 3 0.76 0.18
2 4 0.47 0.19
2 5 0.54 0.25
2 6 0.57 0.22
2 7 0.62 0.2
2 8 0.36 0.13
2 9 0.6 0.34
2 10 0.47 0.22
2 11 0.15 0.12
2 12 0.45 0.32
2 13 0.55 0.16
2 14 0.58 0.23
2 15 0.42 0.22
2 16 0.22 0.21
2 17 0.42 0.22
2 18 0.51 0.08
2 19 0.46 0.14
2 20 0.46 0.37
2 21 0.57 0.27
2 22 0.54 0.16
2 23 0.58 0.19
2 24 0.6 0.17
2 25 0.59 0.31
2 26 0.6 0.28
2 27 0.52 0.19
2 28 0.56 0.14
2 29 0.54 0.17
3 4 0.52 0.27
3 5 0.57 0.16
3 6 0.46 0.24
3 7 0.77 0.1
3 8 0.4 0.16
3 9 0.49 0.28
3 10 0.54 0.12
3 11 0.69 0.06
3 12 0.57 0.2
3 13 0.34 0.1
3 14 0.47 0.27
3 15 0.6 0.16
3 16 0.77 0.25
3 17 0.4 0.18
3 18 0.44 0.22
3 19 0.38 0.04
3 20 0.84 0.3
3 21 0.83 0.16
3 22 0.66 0.08
3 23 0.58 0.1
3 24 0.72 0.16
3 25 0.68 0.25
3 26 0.84 0.28
3 27 0.54 0.22
3 28 0.68 0.22
3 29 0.64 0.11
4 5 0.47 0.25
4 6 0.62 0.28
4 7 0.58 0.24
4 8 0.71 0.31
4 9 0.57 0.27
4 10 0.5 0.31
4 11 0.52 0.22
4 12 0.53 0.26
4 13 0.34 0.18
4 14 0.37 0.04
4 15 0.45 0.27
4 16 0.25 0.1
4 17 0.66 0.13
4 18 0.5 0.18
4 19 0.42 0.23
4 20 0.72 0.18
4 21 0.61 0.29
4 22 0.68 0.19
4 23 0.7 0.27
4 24 0.4 0.2
4 25 0.69 0.31
4 26 0.64 0.17
4 27 0.66 0.14
4 28 0.6 0.05
4 29 0.68 0.2
5 6 0.68 0.32
5 7 0.84 0.24
5 8 0.64 0.12
5 9 0.53 0.32
5 10 0.63 0.26
5 11 0.69 0.22
5 12 0.53 0.19
5 13 0.74 0.2
5 14 0.6 0.29
5 15 0.52 0.16
5 16 0.72 0.15
5 17 0.7 0.31
5 18 0.52 0.28
5 19 0.49 0.18
5 20 0.56 0.41
5 21 0.77 0.31
5 22 0.52 0.14
5 23 0.79 0.06
5 24 0.52 0.23
5 25 0.44 0.09
5 26 0.66 0.32
5 27 0.66 0.33
5 28 0.64 0.28
5 29 0.23 0.15
6 7 0.66 0.23
6 8 0.58 0.2
6 9 0.78 0.41
6 10 0.72 0.29
6 11 0.62 0.2
6 12 0.75 0.36
6 13 0.72 0.16
6 14 0.61 0.31
6 15 0.46 0.3
6 16 0.61 0.35
6 17 0.6 0.22
6 18 0.71 0.14
6 19 0.33 0.21
6 20 0.72 0.36
6 21 0.56 0.08
6 22 0.44 0.24
6 23 0.71 0.26
6 24 0.26 0.09
6 25 0.55 0.29
6 26 0.52 0.37
6 27 0.48 0.14
6 28 0.5 0.23
6 29 0.59 0.24
7 8 0.48 0.18
7 9 0.52 0.3
7 10 0.82 0.14
7 11 0.7 0.16
7 12 0.4 0.24
7 13 0.62 0.2
7 14 0.76 0.2
7 15 0.8 0.26
7 16 0.68 0.26
7 17 0.5 0.28
7 18 0.51 0.28
7 19 0.49 0.06
7 20 0.52 0.32
7 21 0.86 0.26
7 22 0.94 0.1
7 23 0.58 0.18
7 24 0.7 0.14
7 25 0.5 0.27
7 26 0.72 0.22
7 27 0.72 0.24
7 28 0.74 0.2
7 29 0.65 0.13
8 9 0.58 0.36
8 10 0.48 0.26
8 11 0.51 0.22
8 12 0.62 0.31
8 13 0.51 0.26
8 14 0.68 0.33
8 15 0.6 0.16
8 16 0.58 0.27
8 17 0.64 0.29
8 18 0.6 0.16
8 19 0.72 0.18
8 20 0.74 0.4
8 21 0.76 0.25
8 22 0.71 0.14
8 23 0.88 0.06
8 24 0.42 0.11
8 25 0.7 0.21
8 26 0.66 0.2
8 27 0.62 0.21
8 28 0.63 0.26
8 29 0.5 0.19
9 10 0.3 0.24
9 11 0.7 0.34
9 12 0.58 0.42
9 13 0.49 0.38
9 14 0.51 0.31
9 15 0.68 0.4
9 16 0.56 0.37
9 17 0.61 0.3
9 18 0.43 0.32
9 19 0.54 0.24
9 20 0.64 0.42
9 21 0.66 0.33
9 22 0.59 0.27
9 23 0.5 0.3
9 24 0.8 0.35
9 25 0.55 0.31
9 26 0.44 0.36
9 27 0.83 0.31
9 28 0.62 0.22
9 29 0.3 0.17
10 11 0.62 0.15
10 12 0.5 0.26
10 13 0.5 0.19
10 14 0.56 0.29
10 15 0.86 0.25
10 16 0.67 0.34
10 17 0.56 0.2
10 18 0.72 0.3
10 19 0.5 0.08
10 20 0.76 0.18
10 21 0.44 0.26
10 22 0.7 0.12
10 23 0.69 0.2
10 24 0.5 0.2
10 25 0.78 0.29
10 26 0.56 0.16
10 27 0.78 0.26
10 28 0.7 0.26
10 29 0.44 0.15
11 12 0.3 0.22
11 13 0.4 0.04
11 14 0.7 0.24
11 15 0.57 0.1
11 16 0.37 0.19
11 17 0.57 0.24
11 18 0.58 0.16
11 19 0.61 0.1
11 20 0.61 0.27
11 21 0.42 0.15
11 22 0.58 0.14
11 23 0.43 0.16
11 24 0.75 0.22
11 25 0.74 0.31
11 26 0.64 0.31
11 27 0.54 0.28
11 28 0.41 0.26
11 29 0.69 0.17
12 13 0.62 0.2
12 14 0.62 0.3
12 15 0.48 0.16
12 16 0.28 0.24
12 17 0.65 0.38
12 18 0.8 0.38
12 19 0.53 0.18
12 20 0.72 0.22
12 21 0.62 0.31
12 22 0.7 0.22
12 23 0.7 0.25
12 24 0.49 0.3
12 25 0.7 0.28
12 26 0.8 0.36
12 27 0.77 0.36
12 28 0.69 0.31
12 29 0.76 0.25
13 14 0.62 0.2
13 15 0.5 0.14
13 16 0.59 0.23
13 17 0.62 0.28
13 18 0.74 0.18
13 19 0.72 0.14
13 20 0.89 0.31
13 21 0.52 0.11
13 22 0.42 0.18
13 23 0.75 0.2
13 24 0.74 0.25
13 25 0.35 0.29
13 26 0.82 0.33
13 27 0.47 0.3
13 28 0.51 0.23
13 29 0.71 0.21
14 15 0.52 0.23
14 16 0.62 0.14
14 17 0.62 0.17
14 18 0.44 0.22
14 19 0.4 0.23
14 20 0.57 0.14
14 21 0.72 0.31
14 22 0.59 0.23
14 23 0.54 0.31
14 24 0.49 0.22
14 25 0.77 0.35
14 26 0.39 0.13
14 27 0.44 0.18
14 28 0.46 0.09
14 29 0.66 0.24
15 16 0.2 0.17
15 17 0.3 0.24
15 18 0.72 0.26
15 19 0.78 0.2
15 20 0.62 0.37
15 21 0.42 0.25
15 22 0.66 0.18
15 23 0.34 0.1
15 24 0.54 0.24
15 25 0.46 0.24
15 26 0.82 0.36
15 27 0.52 0.32
15 28 0.58 0.32
15 29 0.58 0.23
16 17 0.41 0.16
16 18 0.52 0.28
16 19 0.58 0.29
16 20 0.64 0.28
16 21 0.61 0.34
16 22 0.54 0.29
16 23 0.5 0.21
16 24 0.65 0.3
16 25 0.66 0.24
16 26 0.82 0.27
16 27 0.52 0.24
16 28 0.56 0.15
16 29 0.76 0.3
17 18 0.54 0.14
17 19 0.56 0.22
17 20 0.48 0.31
17 21 0.62 0.3
17 22 0.56 0.22
17 23 0.41 0.27
17 24 0.81 0.23
17 25 0.74 0.34
17 26 0.68 0.22
17 27 0.22 0.08
17 28 0.46 0.08
17 29 0.56 0.23
18 19 0.82 0.22
18 20 0.7 0.36
18 21 0.78 0.22
18 22 0.66 0.2
18 23 0.63 0.22
18 24 0.64 0.21
18 25 0.39 0.28
18 26 0.5 0.32
18 27 0.49 0.22
18 28 0.6 0.18
18 29 0.69 0.21
19 20 0.48 0.26
19 21 0.6 0.2
19 22 0.55 0.04
19 23 0.75 0.12
19 24 0.38 0.12
19 25 0.68 0.21
19 26 0.68 0.24
19 27 0.48 0.18
19 28 0.46 0.18
19 29 0.26 0.07
20 21 0.82 0.28
20 22 0.58 0.3
20 23 0.59 0.38
20 24 0.68 0.36
20 25 0.8 0.46
20 26 0.2 0.2
20 27 0.46 0.27
20 28 0.78 0.23
20 29 0.68 0.32
21 22 0.54 0.24
21 23 0.67 0.26
21 24 0.48 0.14
21 25 0.71 0.3
21 26 0.69 0.31
21 27 0.78 0.22
21 28 0.47 0.29
21 29 0.58 0.16
22 23 0.7 0.08
22 24 0.68 0.16
22 25 0.68 0.23
22 26 0.74 0.23
22 27 0.34 0.19
22 28 0.38 0.14
22 29 0.29 0.1
23 24 0.66 0.17
23 25 0.4 0.15
23 26 0.52 0.26
23 27 0.38 0.27
23 28 0.51 0.22
23 29 0.8 0.13
24 25 0.5 0.2
24 26 0.68 0.29
24 27 0.59 0.2
24 28 0.67 0.15
24 29 0.54 0.18
25 26 0.6 0.3
25 27 0.54 0.34
25 28 0.55 0.26
25 29 0.67 0.14
26 27 0.56 0.23
26 28 0.65 0.14
26 29 0.61 0.29
27 28 0.36 0.09
27 29 0.58 0.2
28 29 0.41 0.15
